20994.2
20994.2
20994.2
20979.5
20979.5
20979.5
20836.1
20734.5
20520.7
20520.7
20341.9
20341.9
20052.9
20052.9
19836.4
19836.4
19310.7
19310.7
18987.8
18816
18816
18816
18816
18793.1
18720.3
18720.3
18605.4
18605.4
18370.2
18370.2
18331.6
18236
18143.5
18143.5
18143.5
17989.7
17989.7
17989.7
17933.6
17933.6
17921.7
17921.7
17869.3
17865.7
17765.5
17765.5
17765.5
17765.5
17640.4
17526.1
17526.1
17526.1
17443.6
17443.6
17443.6
17378.8
17378.8
17378.8
17378.8
17322.6
17322.6
17172.5
17172.5
17053.3
17053.3
17053.3
17053.3
17053.3
16881.8
16881.8
16810.2
16810.2
16810.2
16810.2
16810.2
16810.2
16557.6
16557.6
16557.6
16493.7
16493.7
16493.7
16464.8
16357.9
16357.9
16357.9
16289
16204.9
16204.9
15916.3
15916.3
15916.3
15916.3
15916.3
15833.8
15833.8
15833.8
15833.8
15833.8
15691.9
